5
25
0 50 96 29 21 46 37 54 59 40 83 23 15 35 71 26 33 91 36 76 42 84 86 64 63
18
0 44 2 31 56 85 8 89 68 34 30 28 51 5 45 16 14 47
18
0 99 20 74 18 82 12 9 22 55 97 72 66 43 53 17 19 70
24
0 98 88 48 62 25 67 90 94 77 1 81 27 92 41 39 24 10 7 11 73 61 79 75
20
0 69 57 32 93 6 49 78 3 100 58 38 4 87 52 60 13 65 80 95
